p cnf 50 70
-36 11 -21 0
48 24 8 0
30 18 15 0
-12 36 43 0
11 -36 19 0
-44 -34 -22 0
-28 5 -50 0
-40 -12 24 0
27 -25 21 0
-49 26 27 0
-10 18 -1 0
11 36 9 0
-17 -32 -40 0
-21 -39 47 0
37 -12 38 0
39 6 -2 0
21 29 -39 0
-49 41 34 0
-22 -45 -3 0
30 -39 -24 0
15 26 49 0
15 -12 40 0
-46 28 -9 0
-47 50 -31 0
27 49 -34 0
18 36 -37 0
12 48 38 0
-29 -18 -12 0
-23 13 42 0
33 38 43 0
30 -20 49 0
34 -21 -11 0
-23 7 39 0
-34 -18 -25 0
-37 -1 2 0
-50 14 18 0
-16 43 -11 0
40 -29 41 0
35 -2 -5 0
43 37 11 0
-3 -38 -39 0
-49 43 -1 0
-40 -24 -46 0
31 -26 -8 0
-17 25 -2 0
16 -42 -10 0
24 -32 18 0
14 -30 39 0
24 23 -8 0
44 -20 14 0
x 1 3 4 -5 -6 -7 -9 10 -12 -14 -15 -16 17 20 21 22 24 25 32 -33 -34 -36 -37 -39 43 -45 47 -49 50 0
x 7 -8 9 11 15 16 17 -19 -21 -22 23 24 27 29 30 -32 -33 -42 44 -45 -46 49 50 0
x -1 -3 -4 7 10 -15 -17 -18 -19 -22 24 25 -26 30 31 -32 -33 -34 -35 36 37 38 39 -42 43 0
x 1 -2 -3 -8 11 13 -14 -16 19 -20 22 26 -29 30 -31 34 -36 37 -38 -40 43 46 47 0
x -2 -3 -5 6 11 12 -14 15 -17 -19 20 21 -22 -23 32 33 -35 -36 -37 -41 42 43 46 47 49 -50 0
x -3 -5 7 -8 -9 -10 -11 12 14 16 17 18 21 22 24 29 -30 -34 -35 -36 -37 39 40 -42 -44 -46 47 49 -50 0
x 2 4 -5 6 -8 -11 -17 -18 -19 -22 23 -24 -25 28 29 -31 35 -36 41 43 -46 -48 49 50 0
x -1 -2 -3 -5 -6 -10 -12 -14 15 -19 -21 -24 25 -26 31 -32 33 -34 -36 -39 -40 -41 43 -47 -48 -49 0
x -1 -2 -3 4 -5 10 11 -13 -14 -16 18 21 -22 -23 -25 -27 -28 -29 -30 -38 40 41 42 43 -44 47 0
x 2 3 -7 -8 -11 12 -13 -18 19 -21 -22 24 -25 -29 32 -37 39 42 -44 -48 49 0
x 1 -2 -3 5 -7 12 -13 -16 17 22 26 -27 28 30 -31 -32 -34 35 39 41 -42 -44 46 48 -50 0
x 2 -7 -9 12 14 16 -18 21 -22 24 26 -27 -31 32 -37 -39 -42 -44 -46 0
x -1 -2 -4 6 7 -8 -9 13 -15 -17 18 19 -20 -22 -23 -24 -25 -26 -27 28 -29 -30 32 35 -36 37 39 -40 -42 43 44 46 -48 -49 50 0
x 2 -3 5 -7 9 12 13 14 17 21 22 23 -24 25 29 32 34 35 -36 38 -40 43 45 47 -49 -50 0
x 1 -7 -8 9 -11 12 -19 21 22 24 -25 28 29 30 33 -36 40 -41 -45 48 50 0
x -1 3 5 7 9 10 11 -12 13 -14 15 18 21 23 25 27 -28 30 -32 -34 35 -37 -39 -45 47 -48 -49 -50 0
x -1 2 4 -7 -12 13 16 18 -20 21 -27 30 -31 -32 -33 -37 -41 42 44 -46 47 -48 49 50 0
x 2 -3 7 -8 9 -10 11 12 14 -15 17 18 19 22 25 26 -27 29 30 32 33 -35 38 -39 -42 44 45 -49 0
x -2 3 -4 9 12 13 14 -16 -17 21 26 27 -28 29 -32 -34 35 -36 37 -38 -39 41 42 43 44 45 47 -50 0
x 1 4 7 9 -12 15 17 18 -19 -22 -25 26 -27 -28 -32 -33 35 -36 -37 -40 -42 -43 -44 -45 47 -49 0
